     Program PWSCF v.6.3 starts on 17May2019 at 12:51:48

     Current dimensions of program PWSCF are:
     Max number of different atomic species (ntypx) = 10
     Max number of k-points (npk) =  40000
     Max angular momentum in pseudopotentials (lmaxx) =  3

     IMPORTANT: XC functional enforced from input :
     Exchange-correlation      = PBE ( 1  4  3  4 0 0)
     Any further DFT definition will be discarded
     Please, verify this is what you really want

     gamma-point specific algorithms are used

     bravais-lattice index     =            0
     lattice parameter (alat)  =      10.5585  a.u.
     unit-cell volume          =    4481.2753 (a.u.)^3
     number of atoms/cell      =           10
     number of atomic types    =            3
     number of electrons       =       135.00
     number of Kohn-Sham states=           82
     kinetic-energy cutoff     =      36.7493  Ry
     charge density cutoff     =     146.9973  Ry
     convergence threshold     =      7.3E-03
     mixing beta               =       0.3000
     number of iterations used =            8  plain     mixing
     Exchange-correlation      = PBE ( 1  4  3  4 0 0)

     celldm(1)=  10.558539  celldm(2)=   0.000000  celldm(3)=   0.000000
     celldm(4)=   0.000000  celldm(5)=   0.000000  celldm(6)=   0.000000

     crystal axes: (cart. coord. in units of alat)
               a(1) = (   1.000000   0.000000   0.000000 )
               a(2) = (   0.500000   0.866025   0.000000 )
               a(3) = (   0.000000   0.000000   4.396019 )

     reciprocal axes: (cart. coord. in units 2 pi/alat)
               b(1) = (  1.000000 -0.577350  0.000000 )
               b(2) = (  0.000000  1.154701  0.000000 )
               b(3) = (  0.000000  0.000000  0.227479 )

     PseudoPot. # 1 for Pt read from file:
     /Users/osmanmamun/Suncat_Code_Base/decaf-espresso/gbrv15pbe/Pt.UPF
     MD5 check sum: f09d6de1a584b5a045c4fc126da2d0c4
     Pseudo is Ultrasoft + core correction, Zval = 16.0
     Generated by new atomic code, or converted to UPF format
     Using radial grid of  985 points,  6 beta functions with:
                l(1) =   0
                l(2) =   0
                l(3) =   1
                l(4) =   1
                l(5) =   2
                l(6) =   2
     Q(r) pseudized with  8 coefficients,  rinner =    1.300   1.300   1.300
                                                       1.300   1.300

     PseudoPot. # 2 for O  read from file:
     /Users/osmanmamun/Suncat_Code_Base/decaf-espresso/gbrv15pbe/O.UPF
     MD5 check sum: 734c27235a0248c51dbae37a1fbe46ec
     Pseudo is Ultrasoft + core correction, Zval =  6.0
     Generated by new atomic code, or converted to UPF format
     Using radial grid of  737 points,  5 beta functions with:
                l(1) =   0
                l(2) =   0
                l(3) =   1
                l(4) =   1
                l(5) =   2
     Q(r) pseudized with  8 coefficients,  rinner =    0.900   0.900   0.900
                                                       0.900   0.900

     PseudoPot. # 3 for H  read from file:
     /Users/osmanmamun/Suncat_Code_Base/decaf-espresso/gbrv15pbe/H.UPF
     MD5 check sum: 761ae9a214b05c3daf00ab9f6b793d6f
     Pseudo is Ultrasoft, Zval =  1.0
     Generated by new atomic code, or converted to UPF format
     Using radial grid of  615 points,  2 beta functions with:
                l(1) =   0
                l(2) =   0
     Q(r) pseudized with  8 coefficients,  rinner =    0.700

     atomic species   valence    mass     pseudopotential
        Pt            16.00   195.08400     Pt( 1.00)
        O              6.00    15.99900     O ( 1.00)
        H              1.00     1.00800     H ( 1.00)

     No symmetry found

   Cartesian axes

     site n.     atom                  positions (alat units)
         1           Pt  tau(   1) = (   0.5000000   0.2886751   2.1980093  )
         2           Pt  tau(   2) = (   1.0000000   0.2886751   2.1980093  )
         3           Pt  tau(   3) = (   0.7500000   0.7216878   2.1980093  )
         4           Pt  tau(   4) = (   1.2500000   0.7216878   2.1980093  )
         5           Pt  tau(   5) = (   0.0000000   0.0000000   2.6062576  )
         6           Pt  tau(   6) = (   0.5000000   0.0000000   2.6062576  )
         7           Pt  tau(   7) = (   0.2500000   0.4330127   2.6062576  )
         8           Pt  tau(   8) = (   0.7500000   0.4330127   2.6062576  )
         9           O   tau(   9) = (   0.5000000   0.2886751   2.8239084  )
        10           H   tau(  10) = (   0.5000000   0.2886751   2.9975152  )

     number of k points=     1  Methfessel-Paxton smearing, width (Ry)=  0.0007
                       cart. coord. in units 2pi/alat
        k(    1) = (   0.0000000   0.0000000   0.0000000), wk =   2.0000000

     Initial potential from superposition of free atoms
     Check: negative starting charge=   -1.497501

     starting charge  130.99990, renormalised to  135.00000

     negative rho (up, down):  1.543E+00 0.000E+00
     Starting wfcs are  101 randomized atomic wfcs

     Self-consistent Calculation

     iteration #  1     ecut=    36.75 Ry     beta= 0.30
     Davidson diagonalization with overlap
     ethr =  1.00E-02,  avg # of iterations = 12.0

     negative rho (up, down):  1.450E+00 0.000E+00

     total energy              =   -1698.98422761 Ry
     Harris-Foulkes estimate   =   -1720.61196987 Ry
     estimated scf accuracy    <      46.17080495 Ry

[...]

     total energy              =   -1717.30602952 Ry
     Harris-Foulkes estimate   =   -1717.30618744 Ry
     estimated scf accuracy    <       0.02001066 Ry

     iteration # 33     ecut=    36.75 Ry     beta= 0.30
     Davidson diagonalization with overlap
     ethr =  7.36E-06,  avg # of iterations =  1.0

[...]

     End of self-consistent calculation

          k = 0.0000 0.0000 0.0000 (  8394 PWs)   bands (ev):

   -52.1092 -51.9683 -51.9679 -51.9022 -51.8940 -51.8935 -51.8123 -51.8116
   -51.7023 -51.6431 -51.6423 -51.6054 -51.6050 -51.5888 -51.5646 -51.5272
   -51.5269 -51.4357 -51.4349 -51.2620 -51.1860 -51.1848 -51.1462 -51.0869
   -21.4929 -10.4275  -8.0665  -7.0591  -7.0591  -6.5390  -5.7613  -5.7611
    -5.6670  -5.1826  -5.1825  -4.9602  -4.6132  -4.6131  -4.3562  -3.1248
    -3.1247  -2.8865  -2.7705  -2.7700  -2.6083  -2.6079  -2.5002  -1.9183
    -1.6110  -1.6106  -1.1108  -1.1105  -1.0729  -0.6636  -0.6633  -0.6006
    -0.1536  -0.1534   0.0898   0.0939   0.3576   0.3579   0.7016   0.7019
     0.7570   0.9136   0.9141   0.9147   0.9153   0.9159   1.1860   1.6843
     1.6844   2.6836   3.1865   3.1866   3.3165   4.4072   4.8196   5.2836
     5.5772   6.0952

     the Fermi energy is     0.9147 ev

!    total energy              =   -1717.30514358 Ry
     Harris-Foulkes estimate   =   -1717.30613671 Ry
     estimated scf accuracy    <       0.00121450 Ry

     The total energy is the sum of the following terms:

     one-electron contribution =  -12453.42817337 Ry
     hartree contribution      =    6245.48875334 Ry
     xc contribution           =    -463.73566297 Ry
     ewald contribution        =    4954.37095596 Ry
     smearing contrib. (-TS)   =      -0.00101654 Ry

     convergence has been achieved in  33 iterations

     negative rho (up, down):  1.427E+00 0.000E+00

     Forces acting on atoms (cartesian axes, Ry/au):

     atom    1 type  1   force =    -0.00043308   -0.00053738   -0.03708504
     atom    2 type  1   force =    -0.00027475    0.00669646   -0.00399694
     atom    3 type  1   force =     0.00358375   -0.00361266   -0.00446500
     atom    4 type  1   force =    -0.00483069   -0.00402789   -0.00388385
     atom    5 type  1   force =    -0.00022948    0.00033050    0.00429051
     atom    6 type  1   force =    -0.00051605   -0.11323641   -0.04211262
     atom    7 type  1   force =    -0.09941280    0.05555613   -0.04066837
     atom    8 type  1   force =     0.09826794    0.05565577   -0.03946153
     atom    9 type  2   force =     0.00418585    0.00319003    0.14073695
     atom   10 type  3   force =    -0.00034068   -0.00001455    0.02664589

     Total force =     0.253168     Total SCF correction =     0.039211
     SCF correction compared to forces is large: reduce conv_thr to get better values

     Writing output data file calc.save/

     General routines

   This run was terminated on:  12:52:58  17May2019

   JOB DONE.